12 40 3 10
8 7 17 2 12 8 11 12 15 18 20 14 16 4 4 2 16 8 8 14 18 5 9 18 17 5 12 19 2 13 19 19 9 11 19 8 14 20 7 2 
1.91 0.46 5.75 0.4 0.38 7.78 2.07 1.93 7.16 0.86 4.15 3.51 4.49 7.48 7.33 6.24 6.67 3.26 0.13 6.09 4.89 6.11 1.94 4.99 6.16 0.14 0.43 0.11 1.51 7.12 5.06 6.8 4.25 8 3.06 2.37 3.27 6.59 4.46 4.51 
1.98 4.76 4.35 4.74 3.35 7.64 0.24 4.23 0.33 5.45 4.22 3.76 1.88 6.7 2.68 3.51 0.72 0.3 4.29 0.68 3.4 4.52 6.07 3.05 7.48 7.82 1.43 4.13 7.15 2.38 0.8 5.7 4.32 5.47 1.04 4.07 6.97 6.64 1.22 2.98 
7.41 7.98 5.43 7.64 1.86 3.48 4.31 4.47 0.99 2.57 0.78 1.65 5.85 5 3.55 2.38 4.2 6.64 2.96 4.95 4.08 1.99 6.39 6.79 3.37 0.02 5.51 3.83 7.64 1.83 7.71 3.27 6.64 3.24 7.78 0.56 4.18 0.21 1.33 0.72 
4 4 4 4 4 4 4 4 4 4 4 4 4 4 4 4 4 4 4 4 4 4 4 4 4 4 4 4 4 4 4 4 4 4 4 4 4 4 4 4 
1.88 6.82 1.24 4.83 5.29 5.38 2.17 1.7 6.01 5.74 0.95 6.74 2.35 1.01 2.65 6.97 4.35 4.74 5.58 0.16 7.69 3.95 5.04 1.75 2.95 6.63 3.42 1.02 1.25 6.91 0.16 3.42 4.76 4.71 7.34 6.3 7.26 3.85 3.9 2.56 
6.5 1.52 7.67 6.95 0.77 1.22 7.09 3.17 5.93 5.87 6.17 0.26 7.19 3.28 2.84 2.47 0.06 4.08 3.55 4.06 4.91 5.81 4.62 1.81 4.79 5.78 3.36 6.49 7.79 1.84 2.25 1.14 1.39 2.32 3.38 3.09 1.48 0.25 6.82 2.09 
0.66 1.3 5.24 5.15 0.97 5.83 1.39 2.59 5.76 3.48 2.92 1.14 6.27 6.06 0.08 4.54 4.77 0.47 3.93 5.24 7.83 1.1 6.57 7.11 4.87 5.25 5.88 5.58 3.96 5.45 4.02 6.74 1.15 5.46 4.65 5.19 3.59 3.7 4.06 4.23 
0.84 2.44 2.38 1.08 6.35 4.55 6.59 5.21 2.1 7.03 2.66 1.28 6.23 2.52 7.44 7.04 7.15 0.16 6.87 5.86 4.28 2.97 3.2 1.85 5.01 5.92 5.53 0.05 5.99 7.69 7.69 4.57 5.1 1.09 0.25 2.16 1.39 2.07 6.98 1.81 
1.7 4.55 1.81 7.32 7.8 1.2 5 2.71 1.08 7.74 7.45 6.35 4.1 4.38 5.07 2.84 5.88 5.66 4.63 1.51 3.49 3.52 2.71 6.78 3.11 6.9 1.73 7.03 6.99 2.75 2.03 7.49 3.62 6.53 5.78 2.8 5.55 3.74 2.14 1.58 
3.2 4.71 2.6 6.93 4.31 1.32 2.28 2.51 5.25 2 4.13 3.61 3.66 6.44 5.68 2.88 5.22 3.93 1.63 5.22 0.12 0.78 2.77 6.29 6.67 2.62 6.23 4.55 1.44 5.77 2.1 2.33 3.59 4.93 4.96 2.62 0.78 4.16 3.16 0.29 
0.99 2.68 5.32 5 0.21 6.3 2.04 2.88 3.25 1.76 2.64 1.96 0.59 1.39 5.77 6.29 1.23 0.62 4.1 0.66 2.92 3.09 6.77 6.85 2.95 1.78 1.73 4.65 3.15 3.98 0.61 3.08 7.56 1.57 4.45 2.12 0.06 1.14 6.4 5.87 
5.34 0.8 4.73 3.96 0.28 5.96 6.2 5.43 7.92 4.05 7.6 4.73 1.41 4.39 1.89 5.46 2.63 7.64 0.94 6.15 2.68 7.85 3.75 0.37 4.17 7.67 6.06 7.65 6.95 2.82 3.16 3.74 2.41 3.27 0.22 4 4.97 0.53 6.01 0.38 
1 1 1 1 1 1 1 1 1 1 1 1 1 1 1 1 1 1 1 1 1 1 1 1 1 1 1 1 1 1 1 1 1 1 1 1 1 1 1 1 
1 1 1 1 1 1 1 1 1 1 1 1 1 1 1 1 1 1 1 1 1 1 1 1 1 1 1 1 1 1 1 1 1 1 1 1 1 1 1 1 
1 1 1 1 1 1 1 1 1 1 1 1 1 1 1 1 1 1 1 1 1 1 1 1 1 1 1 1 1 1 1 1 1 1 1 1 1 1 1 1 
1 1 1 1 1 1 1 1 1 1 1 1 1 1 1 1 1 1 1 1 1 1 1 1 1 1 1 1 1 1 1 1 1 1 1 1 1 1 1 1 
1 1 1 1 1 1 1 1 1 1 1 1 1 1 1 1 1 1 1 1 1 1 1 1 1 1 1 1 1 1 1 1 1 1 1 1 1 1 1 1 
1 1 1 1 1 1 1 1 1 1 1 1 1 1 1 1 1 1 1 1 1 1 1 1 1 1 1 1 1 1 1 1 1 1 1 1 1 1 1 1 
1 1 1 1 1 1 1 1 1 1 1 1 1 1 1 1 1 1 1 1 1 1 1 1 1 1 1 1 1 1 1 1 1 1 1 1 1 1 1 1 
1 1 1 1 1 1 1 1 1 1 1 1 1 1 1 1 1 1 1 1 1 1 1 1 1 1 1 1 1 1 1 1 1 1 1 1 1 1 1 1 
1 1 1 1 1 1 1 1 1 1 1 1 1 1 1 1 1 1 1 1 1 1 1 1 1 1 1 1 1 1 1 1 1 1 1 1 1 1 1 1 
1 1 1 1 1 1 1 1 1 1 1 1 1 1 1 1 1 1 1 1 1 1 1 1 1 1 1 1 1 1 1 1 1 1 1 1 1 1 1 1 
1 1 1 1 1 1 1 1 1 1 1 1 1 1 1 1 1 1 1 1 1 1 1 1 1 1 1 1 1 1 1 1 1 1 1 1 1 1 1 1 
1 1 1 1 1 1 1 1 1 1 1 1 1 1 1 1 1 1 1 1 1 1 1 1 1 1 1 1 1 1 1 1 1 1 1 1 1 1 1 1 
0.01 0.01 0.01 0.01 0.01 0.01 0.01 0.01 0.01 0.01 0.01 0.01 0.01 0.01 0.01 0.01 0.01 0.01 0.01 0.01 0.01 0.01 0.01 0.01 0.01 0.01 0.01 0.01 0.01 0.01 0.01 0.01 0.01 0.01 0.01 0.01 0.01 0.01 0.01 0.01 
0.02 0.02 0.02 0.02 0.02 0.02 0.02 0.02 0.02 0.02 0.02 0.02 0.02 0.02 0.02 0.02 0.02 0.02 0.02 0.02 0.02 0.02 0.02 0.02 0.02 0.02 0.02 0.02 0.02 0.02 0.02 0.02 0.02 0.02 0.02 0.02 0.02 0.02 0.02 0.02 
0.03 0.03 0.03 0.03 0.03 0.03 0.03 0.03 0.03 0.03 0.03 0.03 0.03 0.03 0.03 0.03 0.03 0.03 0.03 0.03 0.03 0.03 0.03 0.03 0.03 0.03 0.03 0.03 0.03 0.03 0.03 0.03 0.03 0.03 0.03 0.03 0.03 0.03 0.03 0.03 
0.04 0.04 0.04 0.04 0.04 0.04 0.04 0.04 0.04 0.04 0.04 0.04 0.04 0.04 0.04 0.04 0.04 0.04 0.04 0.04 0.04 0.04 0.04 0.04 0.04 0.04 0.04 0.04 0.04 0.04 0.04 0.04 0.04 0.04 0.04 0.04 0.04 0.04 0.04 0.04 
0.125 0.125 0.125 0.125 0.125 0.125 0.125 0.125 0.125 0.125 0.125 0.125 0.125 0.125 0.125 0.125 0.125 0.125 0.125 0.125 0.125 0.125 0.125 0.125 0.125 0.125 0.125 0.125 0.125 0.125 0.125 0.125 0.125 0.125 0.125 0.125 0.125 0.125 0.125 0.125 
0.25 0.25 0.25 0.25 0.25 0.25 0.25 0.25 0.25 0.25 0.25 0.25 0.25 0.25 0.25 0.25 0.25 0.25 0.25 0.25 0.25 0.25 0.25 0.25 0.25 0.25 0.25 0.25 0.25 0.25 0.25 0.25 0.25 0.25 0.25 0.25 0.25 0.25 0.25 0.25 
0.375 0.375 0.375 0.375 0.375 0.375 0.375 0.375 0.375 0.375 0.375 0.375 0.375 0.375 0.375 0.375 0.375 0.375 0.375 0.375 0.375 0.375 0.375 0.375 0.375 0.375 0.375 0.375 0.375 0.375 0.375 0.375 0.375 0.375 0.375 0.375 0.375 0.375 0.375 0.375 
0.5 0.5 0.5 0.5 0.5 0.5 0.5 0.5 0.5 0.5 0.5 0.5 0.5 0.5 0.5 0.5 0.5 0.5 0.5 0.5 0.5 0.5 0.5 0.5 0.5 0.5 0.5 0.5 0.5 0.5 0.5 0.5 0.5 0.5 0.5 0.5 0.5 0.5 0.5 0.5 
0.625 0.625 0.625 0.625 0.625 0.625 0.625 0.625 0.625 0.625 0.625 0.625 0.625 0.625 0.625 0.625 0.625 0.625 0.625 0.625 0.625 0.625 0.625 0.625 0.625 0.625 0.625 0.625 0.625 0.625 0.625 0.625 0.625 0.625 0.625 0.625 0.625 0.625 0.625 0.625 
0.75 0.75 0.75 0.75 0.75 0.75 0.75 0.75 0.75 0.75 0.75 0.75 0.75 0.75 0.75 0.75 0.75 0.75 0.75 0.75 0.75 0.75 0.75 0.75 0.75 0.75 0.75 0.75 0.75 0.75 0.75 0.75 0.75 0.75 0.75 0.75 0.75 0.75 0.75 0.75 
0.875 0.875 0.875 0.875 0.875 0.875 0.875 0.875 0.875 0.875 0.875 0.875 0.875 0.875 0.875 0.875 0.875 0.875 0.875 0.875 0.875 0.875 0.875 0.875 0.875 0.875 0.875 0.875 0.875 0.875 0.875 0.875 0.875 0.875 0.875 0.875 0.875 0.875 0.875 0.875 
1 1 1 1 1 1 1 1 1 1 1 1 1 1 1 1 1 1 1 1 1 1 1 1 1 1 1 1 1 1 1 1 1 1 1 1 1 1 1 1 
